10 10 4

0 239 85 349 318 89 387 300 335 379 
393 0 285 460 459 214 450 195 233 121 
64 219 0 305 93 63 74 308 481 244 
491 121 153 0 77 310 188 376 334 227 
469 133 268 348 0 476 53 63 191 217 
219 92 157 290 313 0 326 302 356 339 
326 163 76 69 361 147 0 172 388 407 
67 470 447 451 439 286 219 0 493 469 
429 55 159 145 224 408 459 221 0 220 
284 473 283 123 298 396 356 73 463 0 

75 0 6
75 1 2
75 2 6
75 3 4
75 4 5
75 5 8
75 6 3
75 7 1
75 8 3
75 9 8

